NAME : CHRVRP
COMMENT : master instance for CHRVRP
EDGE_WEIGHT_TYPE : EUC_2D
NODE_COORD_SECTION
V100 40.769e+03 71.077e+03
V101 5.537e+03 96.579e+03
V102 78.853e+03 0.422e+03
S0 50.837e+03 68.389e+03
S1 66.390e+03 40.535e+03
D10 58.813e+03 27.232e+03
D11 89.771e+03 71.861e+03
D12 89.153e+03 78.300e+03
D13 81.584e+03 85.033e+03
D14 3.589e+03 77.524e+03
D15 69.176e+03 3.666e+03
D16 37.868e+03 11.669e+03
D17 51.851e+03 75.128e+03
D18 65.795e+03 23.922e+03
D19 19.385e+03 25.481e+03
EOF
